MATILDA_Graphs/g0100.col
c File: data_files/evolved_graphs/g0100.col
c
c Auto generated graph
c
p edge 100 1818
e 1 5
e 1 6
e 1 9
e 1 10
e 1 11
e 1 12
e 1 13
e 1 14
e 1 18
e 1 19
e 1 22
e 1 24
e 1 26
e 1 27
e 1 28
e 1 41
e 1 43
e 1 44
e 1 45
e 1 47
e 1 50
e 1 53
e 1 54
e 1 55
e 1 56
e 1 57
e 1 58
e 1 59
e 1 60
e 1 61
e 1 62
e 1 63
e 1 64
e 1 65
e 1 66
e 1 67
e 1 68
e 1 69
e 1 70
e 1 71
e 1 72
e 1 73
e 1 74
e 1 75
e 1 76
e 1 77
e 1 78
e 1 80
e 1 81
e 1 82
e 1 83
e 1 84
e 1 85
e 1 86
e 1 87
e 1 88
e 1 89
e 1 90
e 1 91
e 1 92
e 1 93
e 1 94
e 1 95
e 1 96
e 1 97
e 1 98
e 1 99
e 1 100
e 2 5
e 2 6
e 2 9
e 2 10
e 2 13
e 2 15
e 2 16
e 2 19
e 2 20
e 2 26
e 2 27
e 2 28
e 2 43
e 2 44
e 2 46
e 2 47
e 2 48
e 2 49
e 2 50
e 2 51
e 2 53
e 2 54
e 2 55
e 2 56
e 2 57
e 2 59
e 2 60
e 2 61
e 2 62
e 2 63
e 2 64
e 2 65
e 2 66
e 2 67
e 2 68
e 2 69
e 2 70
e 2 71
e 2 72
e 2 73
e 2 74
e 2 75
e 2 76
e 2 77
e 2 78
e 2 79
e 2 80
e 2 81
e 2 82
e 2 83
e 2 84
e 2 85
e 2 86
e 2 87
e 2 88
e 2 89
e 2 90
e 2 91
e 2 92
e 2 93
e 2 94
e 2 95
e 2 96
e 2 97
e 2 98
e 2 99
e 2 100
e 3 5
e 3 6
e 3 7
e 3 9
e 3 11
e 3 12
e 3 13
e 3 14
e 3 18
e 3 19
e 3 20
e 3 22
e 3 25
e 3 26
e 3 27
e 3 38
e 3 43
e 3 45
e 3 46
e 3 47
e 3 48
e 3 49
e 3 51
e 3 53
e 3 54
e 3 55
e 3 56
e 3 57
e 3 58
e 3 59
e 3 60
e 3 61
e 3 62
e 3 63
e 3 64
e 3 65
e 3 66
e 3 67
e 3 68
e 3 69
e 3 70
e 3 71
e 3 72
e 3 73
e 3 74
e 3 75
e 3 76
e 3 77
e 3 78
e 3 79
e 3 80
e 3 82
e 3 83
e 3 84
e 3 85
e 3 86
e 3 87
e 3 88
e 3 89
e 3 90
e 3 91
e 3 92
e 3 93
e 3 94
e 3 95
e 3 96
e 3 97
e 3 98
e 3 99
e 3 100
e 4 6
e 4 7
e 4 8
e 4 10
e 4 12
e 4 13
e 4 15
e 4 18
e 4 19
e 4 22
e 4 23
e 4 26
e 4 27
e 4 43
e 4 44
e 4 45
e 4 47
e 4 49
e 4 50
e 4 51
e 4 53
e 4 54
e 4 55
e 4 56
e 4 57
e 4 58
e 4 59
e 4 60
e 4 61
e 4 62
e 4 63
e 4 64
e 4 65
e 4 66
e 4 67
e 4 68
e 4 69
e 4 70
e 4 71
e 4 72
e 4 73
e 4 74
e 4 75
e 4 76
e 4 77
e 4 80
e 4 84
e 4 85
e 4 86
e 4 87
e 4 88
e 4 89
e 4 90
e 4 91
e 4 92
e 4 93
e 4 94
e 4 95
e 4 96
e 4 97
e 4 98
e 4 99
e 4 100
e 5 41
e 5 42
e 5 51
e 5 53
e 5 54
e 5 55
e 5 56
e 5 57
e 5 58
e 5 59
e 5 60
e 5 61
e 5 62
e 5 63
e 5 64
e 5 65
e 5 66
e 5 67
e 5 68
e 5 69
e 5 70
e 5 71
e 5 72
e 5 73
e 5 74
e 5 75
e 5 76
e 5 77
e 5 79
e 5 84
e 5 85
e 5 86
e 5 87
e 5 88
e 5 89
e 5 90
e 5 91
e 5 92
e 5 93
e 5 94
e 5 95
e 5 96
e 5 97
e 5 98
e 5 99
e 5 100
e 6 20
e 6 33
e 6 48
e 6 53
e 6 54
e 6 55
e 6 56
e 6 57
e 6 58
e 6 59
e 6 60
e 6 61
e 6 62
e 6 63
e 6 64
e 6 65
e 6 66
e 6 67
e 6 68
e 6 69
e 6 70
e 6 71
e 6 72
e 6 73
e 6 74
e 6 75
e 6 76
e 6 77
e 6 84
e 6 85
e 6 86
e 6 87
e 6 88
e 6 89
e 6 90
e 6 91
e 6 92
e 6 93
e 6 94
e 6 95
e 6 96
e 6 97
e 6 98
e 6 99
e 6 100
e 7 30
e 7 47
e 7 53
e 7 54
e 7 55
e 7 56
e 7 57
e 7 58
e 7 59
e 7 60
e 7 61
e 7 62
e 7 63
e 7 64
e 7 65
e 7 66
e 7 67
e 7 68
e 7 69
e 7 70
e 7 71
e 7 72
e 7 73
e 7 74
e 7 75
e 7 76
e 7 77
e 7 78
e 7 79
e 7 80
e 7 81
e 7 82
e 7 83
e 7 84
e 7 85
e 7 86
e 7 87
e 7 88
e 7 89
e 7 90
e 7 91
e 7 92
e 7 93
e 7 94
e 7 95
e 7 96
e 7 97
e 7 98
e 7 99
e 8 9
e 8 11
e 8 16
e 8 37
e 8 38
e 8 47
e 8 53
e 8 54
e 8 55
e 8 56
e 8 57
e 8 58
e 8 59
e 8 60
e 8 61
e 8 62
e 8 63
e 8 64
e 8 65
e 8 66
e 8 67
e 8 68
e 8 69
e 8 70
e 8 71
e 8 72
e 8 73
e 8 74
e 8 75
e 8 76
e 8 77
e 8 78
e 8 79
e 8 80
e 8 81
e 8 82
e 8 83
e 8 84
e 8 85
e 8 86
e 8 87
e 8 88
e 8 89
e 8 90
e 8 91
e 8 92
e 8 93
e 8 94
e 8 95
e 8 96
e 8 97
e 8 98
e 8 99
e 8 100
e 9 16
e 9 41
e 9 42
e 9 52
e 9 53
e 9 54
e 9 55
e 9 56
e 9 57
e 9 58
e 9 59
e 9 60
e 9 61
e 9 62
e 9 63
e 9 64
e 9 65
e 9 66
e 9 67
e 9 68
e 9 69
e 9 70
e 9 71
e 9 72
e 9 73
e 9 74
e 9 75
e 9 76
e 9 77
e 9 78
e 9 79
e 9 80
e 9 81
e 9 82
e 9 83
e 9 84
e 9 85
e 9 86
e 9 87
e 9 88
e 9 89
e 9 90
e 9 91
e 9 92
e 9 93
e 9 94
e 9 95
e 9 96
e 9 97
e 9 98
e 9 99
e 9 100
e 10 15
e 10 48
e 10 52
e 10 53
e 10 54
e 10 55
e 10 56
e 10 57
e 10 58
e 10 59
e 10 60
e 10 61
e 10 62
e 10 63
e 10 64
e 10 65
e 10 66
e 10 67
e 10 68
e 10 69
e 10 70
e 10 71
e 10 72
e 10 73
e 10 74
e 10 75
e 10 76
e 10 77
e 10 78
e 10 79
e 10 80
e 10 81
e 10 82
e 10 83
e 10 84
e 10 85
e 10 86
e 10 87
e 10 88
e 10 89
e 10 90
e 10 91
e 10 92
e 10 93
e 10 94
e 10 95
e 10 96
e 10 97
e 10 98
e 10 99
e 10 100
e 11 22
e 11 43
e 11 47
e 11 53
e 11 54
e 11 55
e 11 56
e 11 57
e 11 58
e 11 59
e 11 60
e 11 61
e 11 62
e 11 63
e 11 64
e 11 65
e 11 66
e 11 67
e 11 68
e 11 69
e 11 70
e 11 71
e 11 72
e 11 73
e 11 74
e 11 75
e 11 76
e 11 77
e 11 78
e 11 79
e 11 80
e 11 81
e 11 82
e 11 83
e 11 84
e 11 85
e 11 86
e 11 87
e 11 88
e 11 89
e 11 90
e 11 91
e 11 92
e 11 93
e 11 94
e 11 95
e 11 96
e 11 97
e 11 98
e 11 99
e 11 100
e 12 34
e 12 53
e 12 54
e 12 55
e 12 56
e 12 57
e 12 58
e 12 59
e 12 60
e 12 61
e 12 62
e 12 63
e 12 64
e 12 65
e 12 66
e 12 67
e 12 68
e 12 69
e 12 70
e 12 71
e 12 72
e 12 73
e 12 74
e 12 75
e 12 76
e 12 77
e 12 78
e 12 79
e 12 80
e 12 81
e 12 82
e 12 83
e 12 84
e 12 85
e 12 86
e 12 87
e 12 88
e 12 89
e 12 90
e 12 91
e 12 92
e 12 93
e 12 94
e 12 95
e 12 96
e 12 97
e 12 98
e 12 99
e 12 100
e 13 27
e 13 39
e 13 40
e 13 52
e 13 53
e 13 54
e 13 55
e 13 56
e 13 57
e 13 58
e 13 59
e 13 60
e 13 61
e 13 62
e 13 63
e 13 64
e 13 65
e 13 66
e 13 67
e 13 68
e 13 69
e 13 70
e 13 71
e 13 72
e 13 73
e 13 74
e 13 75
e 13 76
e 13 77
e 13 78
e 13 79
e 13 81
e 13 82
e 13 83
e 13 84
e 13 85
e 13 86
e 13 87
e 13 88
e 13 89
e 13 90
e 13 91
e 13 92
e 13 93
e 13 94
e 13 95
e 13 96
e 13 97
e 13 98
e 13 99
e 13 100
e 14 17
e 14 25
e 14 35
e 14 37
e 14 44
e 14 50
e 14 52
e 14 53
e 14 54
e 14 55
e 14 56
e 14 57
e 14 58
e 14 59
e 14 60
e 14 61
e 14 62
e 14 63
e 14 64
e 14 65
e 14 67
e 14 68
e 14 69
e 14 70
e 14 71
e 14 72
e 14 73
e 14 74
e 14 75
e 14 76
e 14 77
e 14 78
e 14 79
e 14 80
e 14 81
e 14 82
e 14 83
e 14 84
e 14 85
e 14 86
e 14 87
e 14 88
e 14 89
e 14 90
e 14 91
e 14 92
e 14 93
e 14 94
e 14 95
e 14 96
e 14 97
e 14 98
e 14 99
e 14 100
e 15 25
e 15 28
e 15 47
e 15 63
e 15 77
e 15 78
e 15 79
e 15 80
e 15 81
e 15 82
e 15 83
e 15 84
e 15 85
e 15 86
e 15 87
e 15 88
e 15 89
e 15 90
e 15 91
e 15 92
e 15 93
e 15 94
e 15 95
e 15 96
e 15 97
e 15 98
e 15 99
e 15 100
e 16 28
e 16 32
e 16 40
e 16 44
e 16 59
e 16 71
e 16 73
e 16 78
e 16 79
e 16 80
e 16 81
e 16 82
e 16 83
e 16 84
e 16 85
e 16 86
e 16 88
e 16 91
e 16 92
e 16 94
e 16 95
e 16 98
e 16 99
e 17 29
e 17 70
e 17 76
e 17 77
e 17 78
e 17 79
e 17 80
e 17 81
e 17 82
e 17 83
e 17 84
e 17 86
e 17 88
e 17 93
e 17 94
e 17 97
e 17 99
e 17 100
e 18 42
e 18 43
e 18 70
e 18 71
e 18 72
e 18 73
e 18 78
e 18 79
e 18 80
e 18 81
e 18 82
e 18 83
e 18 85
e 18 87
e 18 88
e 18 92
e 18 97
e 18 98
e 19 24
e 19 77
e 19 78
e 19 79
e 19 80
e 19 81
e 19 82
e 19 83
e 19 85
e 19 90
e 19 92
e 19 93
e 19 94
e 19 95
e 19 96
e 19 97
e 19 98
e 19 99
e 20 42
e 20 76
e 20 77
e 20 78
e 20 79
e 20 80
e 20 81
e 20 82
e 20 83
e 20 84
e 20 85
e 20 88
e 20 90
e 20 94
e 20 96
e 20 97
e 20 99
e 20 100
e 21 29
e 21 45
e 21 71
e 21 78
e 21 79
e 21 80
e 21 81
e 21 82
e 21 83
e 21 84
e 21 85
e 21 86
e 21 88
e 21 89
e 21 92
e 21 95
e 21 97
e 21 98
e 21 99
e 21 100
e 22 43
e 22 44
e 22 48
e 22 56
e 22 70
e 22 71
e 22 78
e 22 79
e 22 80
e 22 81
e 22 82
e 22 83
e 22 86
e 22 89
e 22 90
e 22 92
e 22 93
e 22 94
e 22 95
e 22 96
e 22 99
e 23 24
e 23 31
e 23 45
e 23 76
e 23 78
e 23 79
e 23 80
e 23 81
e 23 82
e 23 83
e 23 85
e 23 86
e 23 88
e 23 89
e 23 90
e 23 92
e 23 93
e 23 94
e 23 95
e 23 96
e 23 100
e 24 26
e 24 71
e 24 74
e 24 75
e 24 78
e 24 79
e 24 80
e 24 81
e 24 82
e 24 83
e 24 85
e 24 86
e 24 88
e 24 89
e 24 90
e 24 91
e 24 93
e 24 94
e 24 95
e 24 97
e 24 98
e 24 99
e 25 42
e 25 50
e 25 70
e 25 71
e 25 72
e 25 78
e 25 79
e 25 80
e 25 81
e 25 82
e 25 83
e 25 84
e 25 85
e 25 88
e 25 89
e 25 91
e 25 92
e 25 100
e 26 71
e 26 72
e 26 74
e 26 78
e 26 79
e 26 80
e 26 81
e 26 82
e 26 83
e 26 85
e 26 86
e 26 87
e 26 88
e 26 90
e 26 91
e 26 94
e 26 96
e 26 97
e 26 100
e 27 56
e 27 70
e 27 73
e 27 76
e 27 78
e 27 79
e 27 80
e 27 82
e 27 83
e 27 85
e 27 86
e 27 88
e 27 89
e 27 90
e 27 92
e 27 94
e 27 95
e 27 96
e 27 98
e 27 99
e 27 100
e 28 34
e 28 70
e 28 71
e 28 72
e 28 76
e 28 78
e 28 79
e 28 80
e 28 81
e 28 82
e 28 83
e 28 84
e 28 85
e 28 86
e 28 89
e 28 91
e 28 92
e 28 93
e 28 94
e 28 97
e 28 98
e 28 99
e 29 53
e 29 58
e 29 66
e 29 73
e 29 75
e 29 76
e 29 79
e 29 80
e 29 81
e 29 82
e 29 83
e 29 85
e 29 87
e 29 88
e 29 90
e 29 91
e 29 92
e 29 94
e 29 95
e 29 96
e 29 97
e 29 98
e 29 99
e 29 100
e 30 34
e 30 36
e 30 43
e 30 44
e 30 71
e 30 72
e 30 74
e 30 75
e 30 76
e 30 77
e 30 78
e 30 79
e 30 81
e 30 82
e 30 83
e 30 84
e 30 85
e 30 86
e 30 90
e 30 91
e 30 92
e 30 93
e 30 96
e 30 97
e 30 98
e 30 100
e 31 47
e 31 70
e 31 75
e 31 77
e 31 78
e 31 79
e 31 80
e 31 81
e 31 83
e 31 87
e 31 88
e 31 89
e 31 90
e 31 95
e 31 96
e 31 97
e 31 98
e 31 99
e 32 45
e 32 49
e 32 60
e 32 70
e 32 73
e 32 84
e 32 85
e 32 86
e 32 87
e 32 90
e 32 94
e 32 96
e 33 74
e 33 76
e 33 86
e 33 90
e 33 91
e 33 95
e 33 96
e 33 97
e 33 98
e 33 99
e 33 100
e 34 70
e 34 74
e 34 78
e 34 84
e 34 86
e 34 87
e 34 88
e 34 91
e 34 92
e 34 93
e 34 94
e 34 95
e 34 98
e 34 100
e 35 71
e 35 72
e 35 73
e 35 77
e 35 85
e 35 86
e 35 88
e 35 89
e 35 90
e 35 92
e 35 96
e 35 97
e 35 100
e 36 46
e 36 59
e 36 73
e 36 74
e 36 77
e 36 84
e 36 85
e 36 86
e 36 89
e 36 91
e 36 92
e 36 97
e 36 98
e 37 70
e 37 73
e 37 76
e 37 77
e 37 84
e 37 86
e 37 87
e 37 88
e 37 89
e 37 91
e 37 95
e 37 96
e 37 100
e 38 41
e 38 47
e 38 71
e 38 84
e 38 94
e 38 96
e 38 97
e 38 99
e 39 45
e 39 50
e 39 70
e 39 77
e 39 78
e 39 85
e 39 89
e 39 92
e 39 94
e 39 95
e 39 96
e 39 97
e 39 98
e 39 100
e 40 70
e 40 72
e 40 73
e 40 75
e 40 77
e 40 78
e 40 84
e 40 85
e 40 86
e 40 87
e 40 88
e 40 89
e 40 90
e 40 91
e 40 92
e 40 93
e 40 94
e 40 95
e 40 96
e 40 97
e 40 98
e 40 99
e 40 100
e 41 71
e 41 84
e 41 85
e 41 86
e 41 87
e 41 88
e 41 89
e 41 90
e 41 91
e 41 92
e 41 93
e 41 94
e 41 95
e 41 96
e 41 97
e 41 98
e 41 99
e 41 100
e 42 83
e 42 84
e 42 85
e 42 86
e 42 87
e 42 88
e 42 90
e 42 91
e 42 92
e 42 93
e 42 94
e 42 95
e 42 96
e 42 97
e 42 98
e 42 99
e 42 100
e 43 51
e 43 53
e 43 54
e 43 55
e 43 56
e 43 84
e 43 85
e 43 86
e 43 87
e 43 88
e 43 89
e 43 90
e 43 91
e 43 92
e 43 93
e 43 94
e 43 95
e 43 96
e 43 97
e 43 98
e 43 99
e 43 100
e 44 52
e 44 53
e 44 56
e 44 84
e 44 85
e 44 86
e 44 87
e 44 88
e 44 89
e 44 90
e 44 91
e 44 92
e 44 93
e 44 94
e 44 95
e 44 96
e 44 97
e 44 98
e 44 99
e 44 100
e 45 51
e 45 52
e 45 54
e 45 55
e 45 76
e 45 87
e 45 88
e 45 89
e 45 90
e 45 91
e 45 92
e 45 93
e 45 94
e 45 95
e 45 97
e 45 98
e 45 99
e 45 100
e 46 51
e 46 52
e 46 53
e 46 55
e 46 56
e 46 66
e 46 87
e 46 88
e 46 89
e 46 90
e 46 91
e 46 92
e 46 93
e 46 94
e 46 95
e 46 96
e 46 97
e 46 98
e 46 100
e 47 48
e 47 51
e 47 53
e 47 54
e 47 65
e 47 70
e 47 78
e 47 88
e 47 90
e 47 91
e 47 92
e 47 93
e 47 94
e 47 95
e 47 97
e 47 98
e 47 99
e 48 51
e 48 52
e 48 53
e 48 56
e 48 62
e 48 82
e 48 87
e 48 88
e 48 90
e 48 91
e 48 92
e 48 93
e 48 94
e 48 95
e 48 96
e 48 97
e 48 98
e 48 99
e 48 100
e 49 50
e 49 51
e 49 52
e 49 54
e 49 55
e 49 57
e 49 78
e 49 87
e 49 88
e 49 89
e 49 92
e 49 94
e 49 95
e 49 96
e 49 97
e 49 98
e 49 99
e 50 51
e 50 54
e 50 55
e 50 58
e 50 87
e 50 88
e 50 89
e 50 90
e 50 92
e 50 93
e 50 94
e 50 96
e 50 97
e 50 99
e 51 62
e 51 64
e 51 87
e 51 90
e 51 92
e 51 93
e 51 94
e 51 95
e 51 96
e 51 97
e 51 98
e 51 99
e 51 100
e 52 57
e 52 67
e 52 87
e 52 88
e 52 89
e 52 91
e 52 93
e 52 94
e 52 95
e 52 97
e 52 98
e 52 99
e 52 100
e 53 79
e 53 88
e 53 89
e 53 91
e 53 93
e 53 97
e 53 98
e 53 99
e 53 100
e 54 88
e 54 90
e 54 91
e 54 92
e 54 93
e 54 95
e 54 97
e 54 98
e 54 99
e 54 100
e 55 57
e 55 78
e 55 87
e 55 88
e 55 89
e 55 90
e 55 91
e 55 92
e 55 93
e 55 94
e 55 96
e 55 97
e 55 98
e 55 99
e 55 100
e 56 57
e 56 82
e 56 88
e 56 89
e 56 92
e 56 93
e 56 94
e 56 97
e 56 99
e 56 100
e 57 87
e 57 88
e 57 89
e 57 90
e 57 91
e 57 92
e 57 94
e 57 95
e 57 97
e 57 98
e 57 100
e 58 76
e 58 88
e 58 89
e 58 90
e 58 91
e 58 92
e 58 93
e 58 94
e 58 95
e 58 96
e 59 63
e 59 67
e 59 89
e 59 91
e 59 92
e 59 96
e 59 98
e 59 99
e 59 100
e 60 87
e 60 88
e 60 89
e 60 90
e 60 91
e 60 92
e 60 93
e 60 94
e 60 95
e 60 96
e 60 97
e 60 99
e 60 100
e 61 63
e 61 79
e 61 90
e 61 91
e 61 92
e 61 93
e 61 94
e 61 95
e 61 97
e 61 98
e 61 99
e 61 100
e 62 88
e 62 89
e 62 90
e 62 91
e 62 92
e 62 95
e 62 97
e 62 98
e 62 99
e 62 100
e 63 78
e 63 87
e 63 88
e 63 89
e 63 90
e 63 91
e 63 92
e 63 93
e 63 95
e 63 96
e 63 97
e 63 98
e 64 88
e 64 89
e 64 90
e 64 92
e 64 93
e 64 94
e 64 95
e 64 96
e 64 97
e 64 98
e 64 99
e 64 100
e 65 82
e 65 87
e 65 88
e 65 89
e 65 91
e 65 92
e 65 93
e 65 95
e 65 96
e 65 98
e 65 99
e 65 100
e 66 81
e 66 85
e 66 89
e 66 91
e 66 92
e 66 93
e 66 94
e 66 95
e 66 96
e 66 99
e 66 100
e 67 71
e 67 88
e 67 89
e 67 93
e 67 94
e 67 95
e 67 96
e 67 97
e 67 98
e 67 100
e 68 88
e 68 89
e 68 90
e 68 91
e 68 92
e 68 93
e 68 94
e 68 95
e 68 96
e 68 97
e 68 98
e 68 99
e 69 87
e 69 88
e 69 89
e 69 91
e 69 92
e 69 93
e 69 98
e 69 100
e 70 77
e 70 78
e 70 85
e 70 88
e 70 90
e 70 92
e 70 93
e 70 95
e 70 96
e 70 97
e 70 100
e 71 87
e 71 88
e 71 89
e 71 90
e 71 93
e 71 94
e 71 95
e 71 96
e 71 99
e 71 100
e 72 88
e 72 89
e 72 90
e 72 91
e 72 92
e 72 93
e 72 94
e 72 97
e 72 98
e 72 100
e 73 85
e 73 87
e 73 88
e 73 89
e 73 90
e 73 91
e 73 92
e 73 93
e 73 94
e 73 95
e 73 96
e 73 97
e 73 98
e 73 99
e 73 100
e 74 85
e 74 88
e 74 91
e 74 92
e 74 93
e 74 94
e 74 95
e 74 96
e 74 97
e 74 98
e 74 99
e 75 83
e 75 86
e 75 88
e 75 90
e 75 91
e 75 93
e 75 94
e 75 95
e 75 96
e 75 97
e 75 98
e 75 99
e 75 100
e 76 87
e 76 89
e 76 91
e 76 92
e 76 93
e 76 98
e 76 100
e 77 87
e 77 88
e 77 89
e 77 90
e 77 92
e 77 93
e 77 96
e 77 98
e 77 100
e 78 84
e 78 87
e 78 88
e 78 89
e 78 90
e 78 92
e 78 93
e 78 97
e 78 98
e 78 99
e 79 87
e 79 88
e 79 89
e 79 90
e 79 91
e 79 92
e 79 93
e 79 95
e 79 96
e 79 100
e 80 87
e 80 88
e 80 89
e 80 90
e 80 92
e 80 93
e 80 94
e 80 95
e 80 97
e 80 98
e 80 99
e 80 100
e 81 86
e 81 87
e 81 88
e 81 89
e 81 91
e 81 92
e 81 94
e 81 95
e 81 96
e 81 97
e 81 98
e 81 99
e 81 100
e 82 87
e 82 88
e 82 89
e 82 90
e 82 94
e 82 97
e 82 98
e 83 87
e 83 88
e 83 89
e 83 91
e 84 87
e 84 89
e 84 90
e 84 91
e 84 98
e 84 99
e 85 88
e 85 89
e 85 91
e 85 92
e 85 93
e 85 94
e 85 95
e 85 99
e 86 87
e 86 89
e 86 91
e 86 97
e 86 98
e 86 99
e 86 100
e 87 88
e 87 89
e 87 90
e 87 91
e 87 94
e 87 96
e 87 97
e 87 100
e 88 95
e 88 99
e 89 98
e 89 100
e 90 96
e 91 99
e 92 98
e 96 98
