MATILDA_Graphs/g0100.sol
SET_INDEX
1
8119
29482
50021
75994
195582
249734
275982
EOF
